<number of tasks>
50

<cycle time>
1000

<order strength>
0.199


<task times>
1 274
2 207
3 133
4 307
5 121
6 115
7 182
8 222
9 168
10 207
11 61
12 136
13 75
14 27
15 183
16 34
17 43
18 221
19 88
20 30
21 103
22 105
23 106
24 83
25 365
26 251
27 136
28 272
29 38
30 60
31 121
32 145
33 148
34 34
35 132
36 179
37 141
38 153
39 54
40 175
41 199
42 132
43 63
44 250
45 262
46 97
47 122
48 107
49 257
50 89

<precedence relations>
1,27
3,11
3,12
4,9
5,8
7,10
7,13
8,14
8,15
9,22
9,34
9,39
11,40
12,32
14,17
14,18
14,19
14,20
14,21
15,16
15,22
15,23
16,25
16,27
16,28
17,44
18,26
19,29
21,30
22,24
23,25
23,30
25,34
26,35
26,38
28,37
30,31
30,32
30,33
30,36
31,39
32,44
34,40
34,43
35,42
37,41
39,48
40,45
40,47
41,48
41,49
43,50
44,46

<end>
